nNurses = 144;
nHours = 31;
minHours = 9;
maxHours = 10;
maxConsec = 9;
maxPresence = 8;
demand = [31, 33, 31, 33, 32, 36, 38, 38, 38, 33, 30, 26, 24, 26, 28, 33, 36, 39, 39, 35, 37, 36, 34, 38, 38, 36, 34, 33, 36, 35, 32];
